(set-info :source |printed by MathSAT|)
(declare-fun call_Age2.age_of_p () Int)
(declare-fun param_im () Int)
(declare-fun flby2 () Int)
(declare-fun flby3 () Bool)
(declare-fun call_Age.flby () Int)
(declare-fun param_r () Bool)
(declare-fun param_q () Bool)
(declare-fun env () Bool)
(declare-fun call_Age3.age_of_p () Int)
(declare-fun call_Sofar.Sofar () Bool)
(declare-fun m () Int)
(declare-fun call_Sofar.flby () Bool)
(declare-fun param_ik () Int)
(declare-fun call_Age2.flby () Int)
(declare-fun call_Age.age_of_p () Int)
(declare-fun call_Age3.flby () Int)
(declare-fun _OK_ () Bool)
(declare-fun flby () Int)
(declare-fun k () Int)
(define-fun .def_224 () Bool (= call_Age3.flby call_Age3.age_of_p))
(define-fun .def_221 () Bool (= call_Sofar.flby call_Sofar.Sofar))
(define-fun .def_219 () Bool (= call_Age2.age_of_p call_Age2.flby))
(define-fun .def_217 () Bool (= call_Age.age_of_p call_Age.flby))
(define-fun .def_215 () Bool (= env call_Sofar.Sofar))
(define-fun .def_212 () Bool (= m flby2))
(define-fun .def_210 () Bool (= k flby))
(define-fun .def_207 () Bool (not env))
(define-fun .def_208 () Bool (or flby3 .def_207))
(define-fun .def_209 () Bool (= _OK_ .def_208))
(define-fun .def_211 () Bool (and .def_209 .def_210))
(define-fun .def_213 () Bool (and .def_211 .def_212))
(define-fun .def_216 () Bool (and .def_213 .def_215))
(define-fun .def_218 () Bool (and .def_216 .def_217))
(define-fun .def_220 () Bool (and .def_218 .def_219))
(define-fun .def_222 () Bool (and .def_220 .def_221))
(define-fun .def_225 () Bool (and .def_222 .def_224))
(define-fun .def_203 () Bool (= call_Age3.flby 0))
(define-fun .def_199 () Bool (= call_Age2.flby 0))
(define-fun .def_196 () Bool (= call_Age.flby 0))
(define-fun .def_191 () Bool (= param_im flby2))
(define-fun .def_188 () Bool (= param_ik flby))
(define-fun .def_192 () Bool (and .def_188 .def_191))
(define-fun .def_194 () Bool (and .def_192 flby3))
(define-fun .def_197 () Bool (and .def_194 .def_196))
(define-fun .def_200 () Bool (and .def_197 .def_199))
(define-fun .def_180 () Bool (<= 1 m))
(define-fun .def_179 () Bool (<= 1 k))
(define-fun .def_181 () Bool (and .def_179 .def_180))
(define-fun .def_176 () Bool (<= k call_Age.age_of_p))
(define-fun .def_177 () Bool (not .def_176))
(define-fun .def_178 () Bool (or param_q .def_177))
(define-fun .def_182 () Bool (and .def_178 .def_181))
(define-fun .def_170 () Bool (<= m call_Age2.age_of_p))
(define-fun .def_171 () Bool (not .def_170))
(define-fun .def_172 () Bool (or param_r .def_171))
(define-fun .def_183 () Bool (and .def_172 .def_182))
(define-fun .def_185 () Bool (= .def_183 call_Sofar.flby))
(define-fun .def_201 () Bool (and .def_185 .def_200))
(define-fun .def_204 () Bool (and .def_201 .def_203))
(define-fun .def_226 () Bool (and .def_204 .def_225))
(assert .def_226)
